p cnf 7230 15
-444 -1510 1752 0
1050 1355 -1750 0
1048 1400 -1748 0
444 -1753 0
-1050 -1751 0
-1048 -1749 0
-1752 1755 0
1753 -1755 0
1750 1751 0
1748 1749 0
1510 -1753 0
-1355 -1751 0
-1400 -1749 0
1746 1747 0
-1746 -1747 0
